70
    1    64    57
    2    63    57
    3    35    29
    4    62    68
    5    28    31
    6     9     7
    7     7    14
    8     1     5
    9     4     8
   10    52    57
   11    31    37
   12    14    18
   13    30    27
   14    65    63
   15    28    28
   16    15    22
   17    31    38
   18    25    21
   19    45    44
   20    44    51
   21    64    70
   22     8     7
   23    14    17
   24    43    50
   25    15    14
   26    16    15
   27    15    19
   28    64    69
   29    38    35
   30    49    52
   31    20    15
   32    51    53
   33    48    45
   34    53    60
   35    58    57
   36    21    14
   37    11    13
   38    59    64
   39    20    21
   40    61    64
   41    46    42
   42    48    55
   43    57    55
   44    28    25
   45    21    26
   46    47    46
   47    11    17
   48    51    49
   49    66    66
   50    38    33
   51     9     2
   52    47    51
   53    32    32
   54    30    23
   55    19    26
   56     4     9
   57     7    10
   58    65    60
   59     1     1
   60    54    59
   61    37    32
   62    22    16
   63    40    39
   64    32    30
   65    45    47
   66    65    59
   67     8     4
   68    66    60
   69    48    53
   70    24    19
71
